c Random generated cnf formula, satisfiable: false
p cnf 10 50
1 -3 -5 0
9 8 -4 0
-3 -2 7 0
6 1 7 0
-8 3 -5 0
-6 -2 5 0
1 4 2 0
10 -4 5 0
-8 -7 -2 0
-3 -4 2 0
-7 -2 -9 0
4 -5 8 0
-8 5 -2 0
3 -6 1 0
7 -4 -8 0
-5 4 -6 0
2 -9 -7 0
-2 -6 4 0
-8 2 -5 0
-9 -10 6 0
-5 -8 1 0
-10 6 -3 0
10 4 -6 0
-4 -9 -10 0
-3 2 1 0
-9 -1 -7 0
2 9 5 0
-4 -9 8 0
2 9 10 0
-9 -6 -7 0
8 10 3 0
6 1 4 0
-8 2 5 0
-8 6 -5 0
-4 -9 -1 0
-4 -9 8 0
-3 -5 -4 0
9 4 6 0
5 -9 3 0
4 -9 -1 0
10 -5 -7 0
-2 -10 -1 0
-2 10 -5 0
-2 9 -1 0
-6 -10 9 0
-8 -6 -4 0
-5 10 -1 0
-2 -1 -9 0
-10 -5 3 0
9 3 -1 0
